GLPSOL: GLPK LP/MIP Solver, v4.55
Parameter(s) specified in the command line:
 -m tmp.mod
Reading model section from tmp.mod...
Reading data section from tmp.mod...
2993 lines were read
Generating obj...
Generating kirhoff...
Generating init_charge...
Generating batt_size...
Model has been successfully generated
GLPK Simplex Optimizer, v4.55
4460 rows, 4802 columns, 9814 non-zeros
Preprocessing...
2612 rows, 4690 columns, 9632 non-zeros
Scaling...
 A: min|aij| =  1.000e+00  max|aij| =  1.000e+00  ratio =  1.000e+00
Problem data seem to be well scaled
Constructing initial basis...
Size of triangular part is 1928
      0: obj =   0.000000000e+00  infeas =  1.701e+03 (684)
    500: obj =   1.560000000e+02  infeas =  8.400e+01 (518)
*   550: obj =   2.210000000e+02  infeas =  0.000e+00 (508)
*   737: obj =   6.200000000e+01  infeas =  0.000e+00 (498)
OPTIMAL LP SOLUTION FOUND
Time used:   0.1 secs
Memory used: 10.3 Mb (10779934 bytes)
#OUTPUT:
62
-75 -90 0 0 0 0 23 0 0 0 0 0 0 0 0 0 0 0 -4 0 -4 0 27 -91 0 0 0 0 0 0 0 0 0 0 0 0 0 -4 0 0 0 0 0 0 0 0 0 0 0 0 0 0 0 0 0 0 0 -76 0 0 0 0 0 0 0 0 0 0 0 0 0 0 0 0 0 0 0 0 0 0 0 0 0 0 0 0 -10 0 0 0 0 0 0 0 0 0 0 0 0 0 10 0 -68 0 0 0 0 0 0 0 0 0 0 0 0 0 0 0 0 0 0 0 0 0 0 0 0 4 0 0 0 0 -68 0 0 0 -18 0 0 0 0 0 0 0 0 0 0 0 0 0 0 0 0 0 0 0 0 0 0 0 0 0 0 0 0 0 0 0 0 0 0 0 0 0 0 0 0 0 0 23 -90 0 0 0 0 0 -10 0 0 0 0 0 4 0 0 4 0 0 0 0 -8 4 0 0 18 0 0 0 0 0 0 0 0 0 0 0 0 0 0 0 0 0 0 0 0 0 0 0 0 0 0 0 0 0 0 0 0 0 0 0 0 0 0 0 0 0 0 0 0 0 0 0 0 0 0 0 0 0 0 0 0 0 0 0 0 0 0 0 0 0 0 0 0 0 0 0 0 0 0 0 0 0 0 0 0 0 0 0 0 0 0 0 0 0 0 0 0 0 0 0 0 0 0 0 0 0 0 0 0 0 0 0 0 0 0 0 0 0 0 0 0 0 0 0 0 
-34 0 4 0 0 0 -26 4 0 0 0 0 0 0 0 0 -12 0 -26 0 0 0 0 -36 0 -1 0 0 0 0 0 0 -12 0 35 0 0 0 0 35 0 4 0 0 0 0 0 0 0 0 0 0 0 0 0 0 0 0 0 0 0 0 0 0 0 0 0 0 0 0 0 0 0 0 0 0 0 0 0 0 0 0 0 0 0 0 0 0 0 0 0 0 0 0 0 0 0 0 -47 0 0 0 -35 0 0 0 0 0 0 0 0 0 0 0 0 0 0 0 0 0 0 0 0 0 0 0 0 4 0 0 0 0 0 0 0 0 0 0 0 1 0 0 0 0 0 0 0 0 0 0 0 0 0 0 0 0 0 0 0 0 0 0 0 0 0 0 0 0 0 0 0 0 0 0 0 0 0 0 0 1 0 0 0 0 0 0 0 35 0 0 0 0 0 0 4 0 0 0 0 0 -8 4 0 0 0 -1 0 0 0 0 0 0 0 0 0 0 0 0 0 0 0 0 0 0 0 0 0 0 0 0 0 0 0 0 0 0 0 0 0 0 0 0 0 0 0 0 0 0 0 0 0 0 0 0 0 0 0 0 0 0 0 0 0 0 0 0 0 0 0 0 0 0 0 0 0 0 0 0 0 0 0 0 0 0 0 0 0 0 0 0 0 0 0 0 0 0 0 0 0 0 0 0 0 0 0 0 0 0 0 0 0 0 0 0 0 0 0 0 0 0 0 0 0 0 0 
-16 0 0 0 0 0 0 0 0 0 0 0 0 0 0 0 0 0 0 0 0 0 0 -1 0 -1 0 0 0 0 0 0 0 0 0 0 0 0 0 0 0 0 0 0 0 0 0 0 0 0 0 0 0 0 0 0 0 0 0 0 0 0 0 0 0 0 0 0 0 0 0 0 0 0 0 0 0 0 0 0 0 0 0 0 0 0 0 0 0 0 0 0 0 0 0 0 0 0 0 0 0 0 0 0 0 0 0 0 0 0 0 0 0 0 0 0 0 0 0 0 0 0 0 0 0 0 0 4 0 0 0 0 0 0 0 0 0 0 0 1 0 0 0 0 0 0 0 0 0 0 0 0 0 0 0 0 0 0 0 0 0 0 0 0 0 0 0 0 0 0 0 0 0 0 0 0 0 0 0 1 0 0 0 0 0 0 0 0 0 0 0 0 0 0 0 0 0 0 0 0 -16 4 0 0 0 -1 0 0 0 0 0 0 0 0 0 0 0 0 0 0 0 0 0 0 0 0 0 0 0 0 0 0 0 0 0 0 0 0 0 0 0 0 0 0 0 0 0 0 0 0 0 0 0 0 0 0 0 0 0 0 0 0 0 0 0 0 0 0 0 0 0 0 0 0 0 0 0 0 0 0 0 0 0 0 0 0 0 0 0 0 0 0 0 0 0 0 0 0 0 0 0 0 0 0 0 0 0 0 0 0 0 0 0 0 0 0 0 0 0 0 0 0 0 0 0 
0 0 1 0 0 0 0 1 0 0 0 0 0 0 0 0 0 0 0 0 0 0 0 -5 0 -1 -4 0 0 0 0 0 0 0 0 0 0 0 0 0 0 1 0 0 0 0 0 0 0 0 0 0 -4 0 0 0 0 0 0 0 0 0 0 0 0 0 0 0 0 0 0 0 0 0 0 -4 0 0 0 0 0 0 0 0 0 0 0 -4 0 0 0 0 0 0 0 0 0 0 0 0 0 0 0 0 0 0 0 0 0 0 0 0 0 0 0 0 0 8 0 0 0 0 0 0 0 0 0 4 0 0 0 0 0 0 0 0 0 0 0 1 0 0 0 0 0 0 0 0 0 0 0 0 0 0 0 0 0 0 0 0 0 0 0 0 0 0 0 0 0 0 0 0 0 0 0 0 0 0 0 5 0 0 0 0 0 0 0 0 0 0 0 0 -4 0 1 4 0 0 0 0 0 4 0 0 0 -1 0 0 0 0 0 0 0 0 0 0 0 0 0 0 0 0 0 0 0 0 0 0 0 0 0 0 0 0 0 0 0 0 0 0 0 0 0 0 0 0 0 0 0 0 0 0 0 0 0 0 0 0 0 0 0 0 0 0 0 0 0 0 0 0 0 0 0 0 0 0 0 0 0 0 0 0 0 0 0 0 0 0 0 0 0 0 0 0 0 0 0 0 0 0 0 0 0 0 0 0 0 0 0 0 0 0 0 0 0 0 0 0 0 0 0 0 0 0 0 
-9 -1 -56 -2 0 0 0 -41 0 0 0 -10 0 -4 0 0 13 0 0 0 0 0 0 -75 0 -2 0 0 0 -2 -98 -1 13 -2 8 0 -2 0 -3 42 2 -41 1 0 1 0 0 -2 -2 5 -1 -2 0 -1 -3 2 0 0 0 0 5 0 0 0 0 0 -3 0 -10 0 0 0 0 0 -3 0 0 -1 0 0 0 0 0 0 0 0 -57 0 0 0 0 0 0 0 0 10 0 0 0 0 57 0 -68 0 0 3 -1 0 1 0 0 0 -3 -1 0 -1 0 0 0 53 0 0 2 0 -1 0 0 4 0 0 0 0 0 0 0 -54 0 0 0 2 -32 0 0 0 0 3 0 -34 0 0 0 0 0 0 0 0 -98 0 0 0 0 2 0 0 -4 0 0 0 0 0 -10 0 0 0 0 0 0 0 0 6 0 -1 0 0 0 0 -57 68 0 -1 2 3 -4 0 -41 -4 0 -2 0 0 -8 4 0 0 0 -1 -1 -2 -1 -3 0 -2 -1 5 0 0 0 0 0 10 0 0 0 0 0 0 0 0 0 0 0 0 0 0 0 0 0 0 0 0 0 0 0 0 0 0 0 0 0 0 0 0 0 0 0 0 0 0 0 0 0 0 0 0 0 0 0 0 0 0 0 0 0 0 0 0 0 0 0 0 0 0 0 0 0 0 0 0 0 0 0 0 0 0 0 0 0 0 0 0 0 0 0 0 0 0 0 0 0 0 0 0 0 0 0 0 0 0 0 0 0 0 0 0 0 
-71 -4 -32 0 -10 -10 -50 6 0 0 -38 10 -9 -3 0 0 0 0 -46 0 8 4 5 -14 0 -1 -4 0 0 0 0 0 0 3 0 0 0 4 -3 0 23 6 0 0 0 3 0 0 -17 0 0 0 -4 -1 0 0 -5 0 0 0 -3 0 4 0 0 0 0 0 -10 2 2 0 0 0 0 -4 0 -1 0 0 0 0 0 0 0 0 -44 0 0 0 0 0 0 0 -4 10 0 0 0 0 6 0 -3 0 0 3 -1 0 1 0 0 -4 -3 0 0 0 0 0 0 0 0 0 0 0 0 0 0 4 0 0 0 0 0 0 0 0 0 0 0 0 0 0 0 0 0 0 0 0 0 0 0 0 0 0 0 0 0 0 0 0 -4 17 0 0 4 2 0 0 0 0 -10 0 0 0 0 0 0 0 0 10 -4 0 0 0 4 2 -44 3 0 -1 23 3 -4 0 2 -4 0 0 0 0 -17 0 0 0 0 0 0 0 0 0 4 -17 -1 -3 -1 -1 0 0 0 10 0 0 0 0 0 0 0 0 0 0 0 0 0 0 0 0 0 0 0 0 0 0 0 0 0 0 0 0 0 0 0 0 0 0 0 0 0 0 0 0 0 0 0 0 0 0 0 0 0 0 0 0 0 0 0 0 0 0 0 0 0 0 0 0 0 0 0 0 0 0 0 0 0 0 0 0 0 0 0 0 0 0 0 0 0 0 0 0 0 0 0 0 0 0 0 0 0 0 0 0 0 0 0 0 0 
-77 -5 -51 -2 -7 0 -41 -41 0 -4 0 0 -1 -55 0 0 0 0 -40 0 -40 0 0 -9 0 -2 0 0 0 -2 0 -2 0 0 0 0 0 4 0 0 0 -41 1 0 1 0 0 0 0 0 0 0 0 -1 0 0 -1 0 0 -3 -3 0 0 0 0 0 0 0 0 0 0 0 0 0 0 0 0 -1 0 0 0 0 0 0 0 0 -4 0 0 0 0 0 1 0 0 0 0 0 0 0 4 0 -2 0 0 0 -1 0 1 0 0 0 0 -1 0 0 0 0 0 52 0 0 0 0 0 0 0 -4 1 0 0 0 0 0 0 0 0 0 0 1 0 0 0 0 0 0 0 0 0 -4 0 0 0 0 0 0 0 0 0 0 0 0 0 0 4 0 -4 0 0 0 0 0 0 0 0 0 0 0 0 6 -4 -1 0 0 0 0 -4 2 0 -1 0 0 -4 0 -41 -4 0 0 0 0 -31 -4 0 0 0 -1 0 0 0 0 0 0 -1 -3 -1 0 1 -6 10 0 0 0 0 0 0 0 0 0 0 0 0 0 0 0 0 0 0 0 0 0 0 0 0 0 0 0 0 0 0 0 0 0 0 0 0 0 0 0 0 0 0 0 0 0 0 0 0 0 0 0 0 0 0 0 0 0 0 0 0 0 0 0 0 0 0 0 0 0 0 0 0 0 0 0 0 0 0 0 0 0 0 0 0 0 0 0 0 0 0 0 0 0 0 0 0 0 0 0 0 0 0 0 0 0 0 
#OUTPUT END
Model has been successfully processed
